circuits = [|
    12,31 |
    3,31 |
    3,22 |
    3,14 |
    4,13 |
    3,13 |
    3,12 |
    3,11 |
    3,10 |
    3,9 |
    4,8 |
    3,8 |
    4,7 |
    3,7 |
    3,6 |
    3,5 |
    3,4 |
    4,3 |
    3,3 |
|];
n = 19;
width = 31;